(set-logic QF_UF)
(declare-fun A0 () Bool)
(declare-fun A1 () Bool)
(declare-fun A2 () Bool)
(declare-fun A3 () Bool)
(declare-fun A4 () Bool)
(declare-fun A5 () Bool)
(declare-fun A6 () Bool)
(declare-fun A7 () Bool)
(declare-fun A8 () Bool)
(declare-fun A9 () Bool)
(declare-fun A10 () Bool)
(declare-fun A11 () Bool)
(declare-fun A12 () Bool)
(declare-fun A13 () Bool)
(declare-fun A14 () Bool)
(declare-fun A15 () Bool)
(declare-fun A16 () Bool)
(declare-fun A17 () Bool)
(declare-fun A18 () Bool)
(declare-fun A19 () Bool)
(declare-fun A20 () Bool)
(declare-fun A21 () Bool)
(declare-fun A22 () Bool)
(declare-fun A23 () Bool)
(declare-fun A24 () Bool)
(assert (let ((.def_0 (not A3))) (let ((.def_1 (or .def_0 A8))) (let ((.def_2 (not .def_1))) (let ((.def_3 (not A19))) (let ((.def_4 (not A24))) (let ((.def_5 (or .def_4 .def_3))) (let ((.def_6 (not .def_5))) (let ((.def_7 (= .def_6 .def_2))) (let ((.def_8 (or A13 A19))) (let ((.def_9 (not .def_8))) (let ((.def_10 (or A0 A7))) (let ((.def_11 (or .def_10 .def_9))) (let ((.def_12 (and .def_11 .def_7))) (let ((.def_13 (not A4))) (let ((.def_14 (and A12 .def_13))) (let ((.def_15 (or A2 A20))) (let ((.def_16 (not .def_15))) (let ((.def_17 (and .def_16 .def_14))) (let ((.def_18 (not A7))) (let ((.def_19 (= .def_0 .def_18))) (let ((.def_20 (not A18))) (let ((.def_21 (and .def_20 A15))) (let ((.def_22 (not .def_21))) (let ((.def_23 (and .def_22 .def_19))) (let ((.def_24 (or .def_23 .def_17))) (let ((.def_25 (not .def_24))) (let ((.def_26 (or .def_25 .def_12))) (let ((.def_27 (not .def_26))) (let ((.def_28 (not A16))) (let ((.def_29 (and .def_28 .def_13))) (let ((.def_30 (not .def_29))) (let ((.def_31 (not A15))) (let ((.def_32 (and .def_18 .def_31))) (let ((.def_33 (not .def_32))) (let ((.def_34 (or .def_33 .def_30))) (let ((.def_35 (or A9 A13))) (let ((.def_36 (not A9))) (let ((.def_37 (and .def_36 A23))) (let ((.def_38 (not .def_37))) (let ((.def_39 (and .def_38 .def_35))) (let ((.def_40 (or .def_39 .def_34))) (let ((.def_41 (not .def_40))) (let ((.def_42 (= .def_18 A5))) (let ((.def_43 (not .def_42))) (let ((.def_44 (not A1))) (let ((.def_45 (or A12 .def_44))) (let ((.def_46 (= .def_45 .def_43))) (let ((.def_47 (not A23))) (let ((.def_48 (and .def_47 .def_0))) (let ((.def_49 (not A10))) (let ((.def_50 (not A8))) (let ((.def_51 (and .def_50 .def_49))) (let ((.def_52 (not .def_51))) (let ((.def_53 (and .def_52 .def_48))) (let ((.def_54 (not .def_53))) (let ((.def_55 (or .def_54 .def_46))) (let ((.def_56 (and .def_55 .def_41))) (let ((.def_57 (not .def_56))) (let ((.def_58 (and .def_57 .def_27))) (let ((.def_59 (not .def_58))) (let ((.def_60 (not A17))) (let ((.def_61 (or A0 .def_60))) (let ((.def_62 (not .def_61))) (let ((.def_63 (= A0 A10))) (let ((.def_64 (not .def_63))) (let ((.def_65 (= .def_64 .def_62))) (let ((.def_66 (and A11 A5))) (let ((.def_67 (or A18 A21))) (let ((.def_68 (and .def_67 .def_66))) (let ((.def_69 (not .def_68))) (let ((.def_70 (or .def_69 .def_65))) (let ((.def_71 (not A14))) (let ((.def_72 (not A22))) (let ((.def_73 (or .def_72 .def_71))) (let ((.def_74 (not A11))) (let ((.def_75 (or .def_44 .def_74))) (let ((.def_76 (and .def_75 .def_73))) (let ((.def_77 (not .def_76))) (let ((.def_78 (or A20 A23))) (let ((.def_79 (not .def_78))) (let ((.def_80 (and A2 A10))) (let ((.def_81 (not .def_80))) (let ((.def_82 (or .def_81 .def_79))) (let ((.def_83 (not .def_82))) (let ((.def_84 (or .def_83 .def_77))) (let ((.def_85 (not .def_84))) (let ((.def_86 (and .def_85 .def_70))) (let ((.def_87 (and A17 A4))) (let ((.def_88 (not .def_87))) (let ((.def_89 (not A0))) (let ((.def_90 (= .def_89 A16))) (let ((.def_91 (not .def_90))) (let ((.def_92 (or .def_91 .def_88))) (let ((.def_93 (not .def_92))) (let ((.def_94 (not A12))) (let ((.def_95 (and A18 .def_94))) (let ((.def_96 (and A18 A18))) (let ((.def_97 (not .def_96))) (let ((.def_98 (= .def_97 .def_95))) (let ((.def_99 (or .def_98 .def_93))) (let ((.def_100 (not A5))) (let ((.def_101 (and .def_100 A23))) (let ((.def_102 (not .def_101))) (let ((.def_103 (or A23 .def_47))) (let ((.def_104 (not .def_103))) (let ((.def_105 (and .def_104 .def_102))) (let ((.def_106 (not .def_105))) (let ((.def_107 (= .def_44 .def_18))) (let ((.def_108 (or A6 A18))) (let ((.def_109 (not .def_108))) (let ((.def_110 (and .def_109 .def_107))) (let ((.def_111 (not .def_110))) (let ((.def_112 (and .def_111 .def_106))) (let ((.def_113 (and .def_112 .def_99))) (let ((.def_114 (and .def_113 .def_86))) (let ((.def_115 (and .def_114 .def_59))) (let ((.def_116 (or A3 A16))) (let ((.def_117 (or .def_28 A12))) (let ((.def_118 (and .def_117 .def_116))) (let ((.def_119 (and .def_89 A22))) (let ((.def_120 (not .def_119))) (let ((.def_121 (or A1 .def_4))) (let ((.def_122 (not .def_121))) (let ((.def_123 (and .def_122 .def_120))) (let ((.def_124 (and .def_123 .def_118))) (let ((.def_125 (not .def_124))) (let ((.def_126 (and A19 A4))) (let ((.def_127 (and .def_20 A8))) (let ((.def_128 (not .def_127))) (let ((.def_129 (or .def_128 .def_126))) (let ((.def_130 (and .def_60 A12))) (let ((.def_131 (not .def_130))) (let ((.def_132 (or A18 .def_94))) (let ((.def_133 (or .def_132 .def_131))) (let ((.def_134 (not .def_133))) (let ((.def_135 (or .def_134 .def_129))) (let ((.def_136 (and .def_135 .def_125))) (let ((.def_137 (not A2))) (let ((.def_138 (or A6 .def_137))) (let ((.def_139 (and A21 .def_20))) (let ((.def_140 (not .def_139))) (let ((.def_141 (or .def_140 .def_138))) (let ((.def_142 (not .def_141))) (let ((.def_143 (= A1 .def_60))) (let ((.def_144 (not A6))) (let ((.def_145 (or A19 .def_144))) (let ((.def_146 (or .def_145 .def_143))) (let ((.def_147 (= .def_146 .def_142))) (let ((.def_148 (or A10 .def_50))) (let ((.def_149 (not .def_148))) (let ((.def_150 (and A8 A0))) (let ((.def_151 (not .def_150))) (let ((.def_152 (or .def_151 .def_149))) (let ((.def_153 (not .def_152))) (let ((.def_154 (and .def_94 .def_18))) (let ((.def_155 (not .def_154))) (let ((.def_156 (and A23 A8))) (let ((.def_157 (not .def_156))) (let ((.def_158 (= .def_157 .def_155))) (let ((.def_159 (not .def_158))) (let ((.def_160 (or .def_159 .def_153))) (let ((.def_161 (and .def_160 .def_147))) (let ((.def_162 (not .def_161))) (let ((.def_163 (and .def_162 .def_136))) (let ((.def_164 (and A15 .def_100))) (let ((.def_165 (not .def_164))) (let ((.def_166 (not A20))) (let ((.def_167 (or .def_94 .def_166))) (let ((.def_168 (and .def_167 .def_165))) (let ((.def_169 (not .def_168))) (let ((.def_170 (= .def_137 .def_137))) (let ((.def_171 (not .def_170))) (let ((.def_172 (and .def_47 A11))) (let ((.def_173 (and .def_172 .def_171))) (let ((.def_174 (and .def_173 .def_169))) (let ((.def_175 (and .def_166 .def_144))) (let ((.def_176 (not .def_175))) (let ((.def_177 (or A8 A3))) (let ((.def_178 (or .def_177 .def_176))) (let ((.def_179 (not .def_178))) (let ((.def_180 (and .def_47 .def_36))) (let ((.def_181 (and .def_3 .def_20))) (let ((.def_182 (not .def_181))) (let ((.def_183 (or .def_182 .def_180))) (let ((.def_184 (and .def_183 .def_179))) (let ((.def_185 (not .def_184))) (let ((.def_186 (and .def_185 .def_174))) (let ((.def_187 (or A19 A23))) (let ((.def_188 (and A2 .def_13))) (let ((.def_189 (and .def_188 .def_187))) (let ((.def_190 (not .def_189))) (let ((.def_191 (and A11 A0))) (let ((.def_192 (not .def_191))) (let ((.def_193 (not A21))) (let ((.def_194 (= .def_94 .def_193))) (let ((.def_195 (and .def_194 .def_192))) (let ((.def_196 (and .def_195 .def_190))) (let ((.def_197 (= .def_31 .def_72))) (let ((.def_198 (not .def_197))) (let ((.def_199 (and .def_18 .def_3))) (let ((.def_200 (not .def_199))) (let ((.def_201 (or .def_200 .def_198))) (let ((.def_202 (not .def_201))) (let ((.def_203 (or .def_28 .def_3))) (let ((.def_204 (or A22 A18))) (let ((.def_205 (not .def_204))) (let ((.def_206 (or .def_205 .def_203))) (let ((.def_207 (not .def_206))) (let ((.def_208 (or .def_207 .def_202))) (let ((.def_209 (and .def_208 .def_196))) (let ((.def_210 (not .def_209))) (let ((.def_211 (or .def_210 .def_186))) (let ((.def_212 (not .def_211))) (let ((.def_213 (or .def_212 .def_163))) (let ((.def_214 (or .def_213 .def_115))) (let ((.def_215 (not .def_214))) (let ((.def_216 (and .def_166 A11))) (let ((.def_217 (or A11 .def_47))) (let ((.def_218 (or .def_217 .def_216))) (let ((.def_219 (or A4 A20))) (let ((.def_220 (and .def_31 A8))) (let ((.def_221 (not .def_220))) (let ((.def_222 (or .def_221 .def_219))) (let ((.def_223 (not .def_222))) (let ((.def_224 (and .def_223 .def_218))) (let ((.def_225 (or A13 .def_36))) (let ((.def_226 (not .def_225))) (let ((.def_227 (and A12 A16))) (let ((.def_228 (and .def_227 .def_226))) (let ((.def_229 (and .def_94 .def_72))) (let ((.def_230 (= .def_18 A4))) (let ((.def_231 (not .def_230))) (let ((.def_232 (and .def_231 .def_229))) (let ((.def_233 (not .def_232))) (let ((.def_234 (and .def_233 .def_228))) (let ((.def_235 (not .def_234))) (let ((.def_236 (or .def_235 .def_224))) (let ((.def_237 (or A14 .def_0))) (let ((.def_238 (and .def_28 .def_144))) (let ((.def_239 (or .def_238 .def_237))) (let ((.def_240 (or A4 A1))) (let ((.def_241 (not .def_240))) (let ((.def_242 (or .def_137 A6))) (let ((.def_243 (not .def_242))) (let ((.def_244 (and .def_243 .def_241))) (let ((.def_245 (or .def_244 .def_239))) (let ((.def_246 (not .def_245))) (let ((.def_247 (= .def_4 A10))) (let ((.def_248 (or .def_36 A9))) (let ((.def_249 (not .def_248))) (let ((.def_250 (or .def_249 .def_247))) (let ((.def_251 (not .def_250))) (let ((.def_252 (or .def_193 .def_3))) (let ((.def_253 (= A7 A7))) (let ((.def_254 (= .def_253 .def_252))) (let ((.def_255 (and .def_254 .def_251))) (let ((.def_256 (or .def_255 .def_246))) (let ((.def_257 (and .def_256 .def_236))) (let ((.def_258 (and A3 A1))) (let ((.def_259 (not .def_258))) (let ((.def_260 (or .def_47 .def_166))) (let ((.def_261 (not .def_260))) (let ((.def_262 (or .def_261 .def_259))) (let ((.def_263 (not .def_262))) (let ((.def_264 (and A1 A6))) (let ((.def_265 (not .def_264))) (let ((.def_266 (or A22 .def_49))) (let ((.def_267 (not .def_266))) (let ((.def_268 (and .def_267 .def_265))) (let ((.def_269 (not .def_268))) (let ((.def_270 (and .def_269 .def_263))) (let ((.def_271 (not .def_270))) (let ((.def_272 (= A8 .def_137))) (let ((.def_273 (not .def_272))) (let ((.def_274 (and .def_60 .def_144))) (let ((.def_275 (not .def_274))) (let ((.def_276 (and .def_275 .def_273))) (let ((.def_277 (not .def_276))) (let ((.def_278 (or .def_3 .def_100))) (let ((.def_279 (and A16 .def_72))) (let ((.def_280 (or .def_279 .def_278))) (let ((.def_281 (and .def_280 .def_277))) (let ((.def_282 (not .def_281))) (let ((.def_283 (and .def_282 .def_271))) (let ((.def_284 (or A23 .def_166))) (let ((.def_285 (or .def_74 A11))) (let ((.def_286 (= .def_285 .def_284))) (let ((.def_287 (or A5 A20))) (let ((.def_288 (not .def_287))) (let ((.def_289 (or .def_193 A16))) (let ((.def_290 (not .def_289))) (let ((.def_291 (or .def_290 .def_288))) (let ((.def_292 (not .def_291))) (let ((.def_293 (or .def_292 .def_286))) (let ((.def_294 (not .def_293))) (let ((.def_295 (and .def_60 A19))) (let ((.def_296 (and A10 A7))) (let ((.def_297 (not .def_296))) (let ((.def_298 (or .def_297 .def_295))) (let ((.def_299 (or A2 A22))) (let ((.def_300 (not .def_299))) (let ((.def_301 (or A9 .def_13))) (let ((.def_302 (and .def_301 .def_300))) (let ((.def_303 (or .def_302 .def_298))) (let ((.def_304 (and .def_303 .def_294))) (let ((.def_305 (and .def_304 .def_283))) (let ((.def_306 (not .def_305))) (let ((.def_307 (or .def_306 .def_257))) (let ((.def_308 (not .def_307))) (let ((.def_309 (or A0 .def_89))) (let ((.def_310 (not .def_309))) (let ((.def_311 (or .def_94 A8))) (let ((.def_312 (not .def_311))) (let ((.def_313 (and .def_312 .def_310))) (let ((.def_314 (or .def_31 .def_49))) (let ((.def_315 (not .def_314))) (let ((.def_316 (and .def_137 .def_36))) (let ((.def_317 (not .def_316))) (let ((.def_318 (or .def_317 .def_315))) (let ((.def_319 (not .def_318))) (let ((.def_320 (and .def_319 .def_313))) (let ((.def_321 (and .def_47 A21))) (let ((.def_322 (= A19 .def_60))) (let ((.def_323 (and .def_322 .def_321))) (let ((.def_324 (or .def_49 .def_44))) (let ((.def_325 (not A13))) (let ((.def_326 (and A8 .def_325))) (let ((.def_327 (not .def_326))) (let ((.def_328 (or .def_327 .def_324))) (let ((.def_329 (= .def_328 .def_323))) (let ((.def_330 (not .def_329))) (let ((.def_331 (or .def_330 .def_320))) (let ((.def_332 (not .def_331))) (let ((.def_333 (or A23 A22))) (let ((.def_334 (not .def_333))) (let ((.def_335 (or A22 .def_193))) (let ((.def_336 (not .def_335))) (let ((.def_337 (and .def_336 .def_334))) (let ((.def_338 (and .def_166 A14))) (let ((.def_339 (not .def_338))) (let ((.def_340 (or .def_3 .def_137))) (let ((.def_341 (or .def_340 .def_339))) (let ((.def_342 (= .def_341 .def_337))) (let ((.def_343 (or A23 .def_4))) (let ((.def_344 (and .def_47 A17))) (let ((.def_345 (not .def_344))) (let ((.def_346 (and .def_345 .def_343))) (let ((.def_347 (not .def_346))) (let ((.def_348 (= .def_47 A2))) (let ((.def_349 (and A20 .def_193))) (let ((.def_350 (and .def_349 .def_348))) (let ((.def_351 (or .def_350 .def_347))) (let ((.def_352 (not .def_351))) (let ((.def_353 (and .def_352 .def_342))) (let ((.def_354 (and .def_353 .def_332))) (let ((.def_355 (and A23 .def_18))) (let ((.def_356 (not .def_355))) (let ((.def_357 (or A19 .def_0))) (let ((.def_358 (not .def_357))) (let ((.def_359 (or .def_358 .def_356))) (let ((.def_360 (and .def_72 .def_50))) (let ((.def_361 (and A16 .def_325))) (let ((.def_362 (not .def_361))) (let ((.def_363 (= .def_362 .def_360))) (let ((.def_364 (not .def_363))) (let ((.def_365 (and .def_364 .def_359))) (let ((.def_366 (not .def_365))) (let ((.def_367 (and A6 A9))) (let ((.def_368 (and .def_89 .def_0))) (let ((.def_369 (and .def_368 .def_367))) (let ((.def_370 (not .def_369))) (let ((.def_371 (and A6 .def_89))) (let ((.def_372 (not .def_371))) (let ((.def_373 (or A12 .def_325))) (let ((.def_374 (not .def_373))) (let ((.def_375 (or .def_374 .def_372))) (let ((.def_376 (and .def_375 .def_370))) (let ((.def_377 (not .def_376))) (let ((.def_378 (or .def_377 .def_366))) (let ((.def_379 (or A23 .def_193))) (let ((.def_380 (not .def_379))) (let ((.def_381 (and A22 .def_49))) (let ((.def_382 (not .def_381))) (let ((.def_383 (or .def_382 .def_380))) (let ((.def_384 (not .def_383))) (let ((.def_385 (and .def_166 .def_3))) (let ((.def_386 (or .def_44 .def_100))) (let ((.def_387 (not .def_386))) (let ((.def_388 (or .def_387 .def_385))) (let ((.def_389 (and .def_388 .def_384))) (let ((.def_390 (not .def_389))) (let ((.def_391 (or A9 A9))) (let ((.def_392 (and A6 A23))) (let ((.def_393 (or .def_392 .def_391))) (let ((.def_394 (or A7 .def_71))) (let ((.def_395 (or A14 A4))) (let ((.def_396 (not .def_395))) (let ((.def_397 (and .def_396 .def_394))) (let ((.def_398 (and .def_397 .def_393))) (let ((.def_399 (not .def_398))) (let ((.def_400 (and .def_399 .def_390))) (let ((.def_401 (and .def_400 .def_378))) (let ((.def_402 (not .def_401))) (let ((.def_403 (or .def_402 .def_354))) (let ((.def_404 (not .def_403))) (let ((.def_405 (and .def_404 .def_308))) (let ((.def_406 (or .def_405 .def_215))) .def_406))))))))))))))))))))))))))))))))))))))))))))))))))))))))))))))))))))))))))))))))))))))))))))))))))))))))))))))))))))))))))))))))))))))))))))))))))))))))))))))))))))))))))))))))))))))))))))))))))))))))))))))))))))))))))))))))))))))))))))))))))))))))))))))))))))))))))))))))))))))))))))))))))))))))))))))))))))))))))))))))))))))))))))))))))))))))))))))))))))))))))))))))))))))))))))))))))))))))))))))))))))))))
(check-sat)
